(set-info :total-time 51.33)
; Start decls (23)
(declare-fun b11 () (_ FloatingPoint 8 24))
(declare-fun b119 () (_ FloatingPoint 8 24))
(declare-fun b122 () (_ FloatingPoint 8 24))
(declare-fun b13 () (_ FloatingPoint 8 24))
(declare-fun b16 () (_ FloatingPoint 8 24))
(declare-fun b19 () (_ FloatingPoint 8 24))
(declare-fun b22 () (_ FloatingPoint 8 24))
(declare-fun b25 () (_ FloatingPoint 8 24))
(declare-fun b28 () (_ FloatingPoint 8 24))
(declare-fun b31 () (_ FloatingPoint 8 24))
(declare-fun b34 () (_ FloatingPoint 8 24))
(declare-fun b37 () (_ FloatingPoint 8 24))
(declare-fun b40 () (_ FloatingPoint 8 24))
(declare-fun b43 () (_ FloatingPoint 8 24))
(declare-fun b46 () (_ FloatingPoint 8 24))
(declare-fun b49 () (_ FloatingPoint 8 24))
(declare-fun b52 () (_ FloatingPoint 8 24))
(declare-fun b55 () (_ FloatingPoint 8 24))
(declare-fun b58 () (_ FloatingPoint 8 24))
(declare-fun b61 () (_ FloatingPoint 8 24))
(declare-fun b64 () (_ FloatingPoint 8 24))
(declare-fun b67 () (_ FloatingPoint 8 24))
(declare-fun b71 () (_ FloatingPoint 11 53))
; End decls
; Start constraints (41)
(assert (fp.lt b119 b11))
(assert (let ((a!1 (fp.mul roundNearestTiesToEven
                   (fp.mul roundNearestTiesToEven
                           (fp.mul roundNearestTiesToEven
                                   (fp.mul roundNearestTiesToEven b11 b13)
                                   b16)
                           b19)
                   b22)))
(let ((a!2 (fp.mul roundNearestTiesToEven
                   (fp.mul roundNearestTiesToEven
                           (fp.mul roundNearestTiesToEven
                                   (fp.mul roundNearestTiesToEven a!1 b25)
                                   b28)
                           b31)
                   b34)))
(let ((a!3 (fp.mul roundNearestTiesToEven
                   (fp.mul roundNearestTiesToEven
                           (fp.mul roundNearestTiesToEven
                                   (fp.mul roundNearestTiesToEven a!2 b37)
                                   b40)
                           b43)
                   b46)))
(let ((a!4 (fp.mul roundNearestTiesToEven
                   (fp.mul roundNearestTiesToEven
                           (fp.mul roundNearestTiesToEven
                                   (fp.mul roundNearestTiesToEven a!3 b49)
                                   b52)
                           b55)
                   b58)))
(let ((a!5 ((_ to_fp 11 53)
             roundNearestTiesToEven
             (fp.mul roundNearestTiesToEven
                     (fp.mul roundNearestTiesToEven
                             (fp.mul roundNearestTiesToEven a!4 b61)
                             b64)
                     b67))))
  (fp.lt b71 a!5)))))))
(assert (fp.lt b11 b122))
(assert (fp.lt b119 b13))
(assert (fp.lt b13 b122))
(assert (fp.lt b119 b16))
(assert (fp.lt b16 b122))
(assert (fp.lt b119 b19))
(assert (fp.lt b19 b122))
(assert (fp.lt b119 b22))
(assert (fp.lt b22 b122))
(assert (fp.lt b119 b25))
(assert (fp.lt b25 b122))
(assert (fp.lt b119 b28))
(assert (fp.lt b28 b122))
(assert (fp.lt b119 b31))
(assert (fp.lt b31 b122))
(assert (fp.lt b119 b34))
(assert (fp.lt b34 b122))
(assert (fp.lt b119 b37))
(assert (fp.lt b37 b122))
(assert (fp.lt b119 b40))
(assert (fp.lt b40 b122))
(assert (fp.lt b119 b43))
(assert (fp.lt b43 b122))
(assert (fp.lt b119 b46))
(assert (fp.lt b46 b122))
(assert (fp.lt b119 b49))
(assert (fp.lt b49 b122))
(assert (fp.lt b119 b52))
(assert (fp.lt b52 b122))
(assert (fp.lt b119 b55))
(assert (fp.lt b55 b122))
(assert (fp.lt b119 b58))
(assert (fp.lt b58 b122))
(assert (fp.lt b119 b61))
(assert (fp.lt b61 b122))
(assert (fp.lt b119 b64))
(assert (fp.lt b64 b122))
(assert (fp.lt b119 b67))
(assert (fp.lt b67 b122))
; End constraints
(check-sat)
